0,96,115,64,80,61,31,55,44,33,60
96,0,66,90,17,110,66,52,52,96,47
115,66,0,67,59,91,85,60,89,94,56
64,90,67,0,72,24,49,40,68,33,44
80,17,59,72,0,93,50,34,39,78,29
61,110,91,24,93,0,58,59,80,28,63
31,66,85,49,50,58,0,25,22,33,30
55,52,60,40,34,59,25,0,33,44,6
44,52,89,68,39,80,22,33,0,56,35
33,96,94,33,78,28,33,44,56,0,50
60,47,56,44,29,63,30,6,35,50,0